NAME 
OBJSENSE MAX
ROWS
 N  OBJ
 L  packing[0]
 L  packing[1]
 L  packing[2]
 L  packing[3]
 L  packing[4]
 L  packing[5]
 L  packing[6]
 L  packing[7]
 L  packing[8]
 L  packing[9]
 L  packing[10]
 L  packing[11]
 L  packing[12]
 L  packing[13]
 L  packing[14]
 L  packing[15]
 L  packing[16]
 L  packing[17]
 L  packing[18]
 L  packing[19]
 L  packing[20]
 L  packing[21]
 L  packing[22]
 L  packing[23]
 L  packing[24]
 L  packing[25]
 L  packing[26]
 L  packing[27]
 L  packing[28]
 L  packing[29]
 L  packing[30]
 L  packing[31]
 L  packing[32]
 L  packing[33]
 L  packing[34]
 L  packing[35]
 L  packing[36]
 L  packing[37]
 L  packing[38]
 L  packing[39]
 L  packing[40]
 L  packing[41]
 L  packing[42]
 L  packing[43]
 L  packing[44]
 L  packing[45]
 L  packing[46]
 L  packing[47]
 L  packing[48]
 L  packing[49]
 L  R51     
COLUMNS
    MARKER    'MARKER'                 'INTORG'
    x[1]      OBJ       22
    x[1]      packing[0]  107
    x[1]      packing[1]  58
    x[1]      packing[4]  28
    x[1]      packing[5]  27
    x[1]      packing[6]  62
    x[1]      packing[7]  165
    x[1]      packing[8]  67
    x[1]      packing[9]  94
    x[1]      packing[10]  45
    x[1]      packing[11]  188
    x[1]      packing[12]  30
    x[1]      packing[13]  114
    x[1]      packing[14]  190
    x[1]      packing[17]  95
    x[1]      packing[18]  185
    x[1]      packing[19]  98
    x[1]      packing[20]  54
    x[1]      packing[21]  111
    x[1]      packing[22]  24
    x[1]      packing[23]  27
    x[1]      packing[24]  53
    x[1]      packing[26]  59
    x[1]      packing[29]  198
    x[1]      packing[30]  197
    x[1]      packing[31]  1
    x[1]      packing[32]  145
    x[1]      packing[33]  14
    x[1]      packing[34]  68
    x[1]      packing[35]  64
    x[1]      packing[36]  172
    x[1]      packing[37]  116
    x[1]      packing[38]  164
    x[1]      packing[39]  90
    x[1]      packing[40]  142
    x[1]      packing[41]  33
    x[1]      packing[42]  118
    x[1]      packing[43]  110
    x[1]      packing[44]  66
    x[1]      packing[45]  177
    x[1]      packing[46]  29
    x[1]      packing[47]  12
    x[1]      packing[48]  136
    x[1]      packing[49]  97
    x[2]      OBJ       84
    x[2]      packing[1]  190
    x[2]      packing[2]  31
    x[2]      packing[4]  143
    x[2]      packing[5]  165
    x[2]      packing[6]  193
    x[2]      packing[7]  1
    x[2]      packing[8]  124
    x[2]      packing[10]  42
    x[2]      packing[11]  20
    x[2]      packing[12]  199
    x[2]      packing[13]  117
    x[2]      packing[15]  21
    x[2]      packing[16]  189
    x[2]      packing[19]  39
    x[2]      packing[20]  21
    x[2]      packing[21]  162
    x[2]      packing[24]  152
    x[2]      packing[25]  17
    x[2]      packing[28]  112
    x[2]      packing[29]  85
    x[2]      packing[30]  175
    x[2]      packing[31]  158
    x[2]      packing[32]  150
    x[2]      packing[33]  29
    x[2]      packing[34]  188
    x[2]      packing[35]  1
    x[2]      packing[36]  28
    x[2]      packing[37]  68
    x[2]      packing[38]  17
    x[2]      packing[40]  20
    x[2]      packing[41]  145
    x[2]      packing[42]  66
    x[2]      packing[43]  36
    x[2]      packing[44]  140
    x[2]      packing[48]  77
    x[2]      packing[49]  2
    x[3]      OBJ       66
    x[3]      packing[0]  196
    x[3]      packing[1]  143
    x[3]      packing[2]  188
    x[3]      packing[3]  197
    x[3]      packing[4]  30
    x[3]      packing[6]  64
    x[3]      packing[7]  188
    x[3]      packing[8]  165
    x[3]      packing[9]  169
    x[3]      packing[10]  134
    x[3]      packing[11]  195
    x[3]      packing[12]  199
    x[3]      packing[14]  132
    x[3]      packing[15]  6
    x[3]      packing[16]  63
    x[3]      packing[17]  11
    x[3]      packing[19]  130
    x[3]      packing[20]  133
    x[3]      packing[21]  61
    x[3]      packing[22]  174
    x[3]      packing[23]  121
    x[3]      packing[25]  84
    x[3]      packing[26]  7
    x[3]      packing[28]  159
    x[3]      packing[29]  168
    x[3]      packing[30]  53
    x[3]      packing[31]  188
    x[3]      packing[32]  57
    x[3]      packing[33]  181
    x[3]      packing[34]  123
    x[3]      packing[37]  7
    x[3]      packing[38]  97
    x[3]      packing[39]  150
    x[3]      packing[41]  13
    x[3]      packing[42]  11
    x[3]      packing[43]  19
    x[3]      packing[45]  69
    x[3]      packing[46]  91
    x[3]      packing[48]  93
    x[3]      packing[49]  77
    x[4]      OBJ       166
    x[4]      packing[0]  24
    x[4]      packing[1]  176
    x[4]      packing[2]  51
    x[4]      packing[4]  19
    x[4]      packing[5]  86
    x[4]      packing[6]  55
    x[4]      packing[8]  111
    x[4]      packing[9]  196
    x[4]      packing[10]  153
    x[4]      packing[12]  49
    x[4]      packing[13]  120
    x[4]      packing[14]  14
    x[4]      packing[15]  15
    x[4]      packing[16]  144
    x[4]      packing[17]  21
    x[4]      packing[18]  12
    x[4]      packing[19]  131
    x[4]      packing[20]  176
    x[4]      packing[21]  14
    x[4]      packing[22]  88
    x[4]      packing[23]  97
    x[4]      packing[24]  47
    x[4]      packing[25]  33
    x[4]      packing[26]  56
    x[4]      packing[28]  158
    x[4]      packing[30]  143
    x[4]      packing[31]  145
    x[4]      packing[32]  141
    x[4]      packing[33]  98
    x[4]      packing[34]  31
    x[4]      packing[36]  162
    x[4]      packing[37]  126
    x[4]      packing[38]  160
    x[4]      packing[41]  78
    x[4]      packing[42]  28
    x[4]      packing[43]  45
    x[4]      packing[45]  76
    x[4]      packing[46]  175
    x[4]      packing[47]  60
    x[4]      packing[48]  136
    x[4]      packing[49]  69
    x[4]      R51       1
    x[5]      OBJ       85
    x[5]      packing[0]  172
    x[5]      packing[1]  58
    x[5]      packing[2]  75
    x[5]      packing[3]  108
    x[5]      packing[4]  183
    x[5]      packing[5]  159
    x[5]      packing[6]  18
    x[5]      packing[7]  90
    x[5]      packing[8]  24
    x[5]      packing[9]  55
    x[5]      packing[11]  189
    x[5]      packing[13]  95
    x[5]      packing[14]  17
    x[5]      packing[15]  151
    x[5]      packing[16]  89
    x[5]      packing[17]  135
    x[5]      packing[19]  167
    x[5]      packing[20]  102
    x[5]      packing[21]  178
    x[5]      packing[22]  108
    x[5]      packing[23]  80
    x[5]      packing[24]  160
    x[5]      packing[25]  141
    x[5]      packing[27]  60
    x[5]      packing[28]  96
    x[5]      packing[29]  175
    x[5]      packing[30]  80
    x[5]      packing[31]  52
    x[5]      packing[32]  63
    x[5]      packing[33]  4
    x[5]      packing[34]  44
    x[5]      packing[35]  65
    x[5]      packing[37]  153
    x[5]      packing[38]  166
    x[5]      packing[39]  3
    x[5]      packing[40]  32
    x[5]      packing[41]  60
    x[5]      packing[42]  189
    x[5]      packing[43]  136
    x[5]      packing[44]  121
    x[5]      packing[45]  108
    x[5]      packing[46]  57
    x[5]      packing[47]  9
    x[5]      packing[48]  169
    x[5]      packing[49]  4
    x[6]      OBJ       126
    x[6]      packing[1]  197
    x[6]      packing[2]  144
    x[6]      packing[3]  134
    x[6]      packing[4]  177
    x[6]      packing[7]  182
    x[6]      packing[9]  2
    x[6]      packing[10]  149
    x[6]      packing[11]  136
    x[6]      packing[12]  118
    x[6]      packing[13]  167
    x[6]      packing[14]  199
    x[6]      packing[16]  125
    x[6]      packing[17]  7
    x[6]      packing[19]  77
    x[6]      packing[20]  50
    x[6]      packing[22]  109
    x[6]      packing[23]  20
    x[6]      packing[24]  157
    x[6]      packing[25]  13
    x[6]      packing[27]  144
    x[6]      packing[31]  108
    x[6]      packing[32]  186
    x[6]      packing[33]  169
    x[6]      packing[34]  51
    x[6]      packing[35]  142
    x[6]      packing[36]  8
    x[6]      packing[37]  90
    x[6]      packing[38]  120
    x[6]      packing[39]  115
    x[6]      packing[40]  37
    x[6]      packing[41]  88
    x[6]      packing[42]  128
    x[6]      packing[43]  113
    x[6]      packing[44]  88
    x[6]      packing[47]  176
    x[6]      packing[48]  11
    x[6]      packing[49]  136
    x[7]      OBJ       181
    x[7]      packing[1]  26
    x[7]      packing[3]  112
    x[7]      packing[5]  198
    x[7]      packing[6]  106
    x[7]      packing[7]  22
    x[7]      packing[9]  188
    x[7]      packing[12]  138
    x[7]      packing[13]  77
    x[7]      packing[14]  153
    x[7]      packing[16]  51
    x[7]      packing[17]  108
    x[7]      packing[18]  126
    x[7]      packing[19]  163
    x[7]      packing[20]  194
    x[7]      packing[22]  105
    x[7]      packing[23]  160
    x[7]      packing[25]  103
    x[7]      packing[26]  50
    x[7]      packing[27]  167
    x[7]      packing[28]  132
    x[7]      packing[30]  143
    x[7]      packing[31]  113
    x[7]      packing[36]  74
    x[7]      packing[37]  1
    x[7]      packing[38]  58
    x[7]      packing[39]  193
    x[7]      packing[41]  146
    x[7]      packing[42]  155
    x[7]      packing[44]  123
    x[7]      packing[45]  178
    x[7]      packing[46]  107
    x[7]      packing[47]  152
    x[7]      packing[48]  61
    x[7]      packing[49]  144
    x[7]      R51       1
    x[8]      OBJ       88
    x[8]      packing[0]  130
    x[8]      packing[1]  180
    x[8]      packing[2]  57
    x[8]      packing[3]  130
    x[8]      packing[4]  185
    x[8]      packing[5]  144
    x[8]      packing[6]  107
    x[8]      packing[7]  194
    x[8]      packing[9]  162
    x[8]      packing[10]  91
    x[8]      packing[11]  61
    x[8]      packing[15]  142
    x[8]      packing[16]  71
    x[8]      packing[17]  171
    x[8]      packing[18]  191
    x[8]      packing[19]  170
    x[8]      packing[20]  174
    x[8]      packing[21]  9
    x[8]      packing[22]  148
    x[8]      packing[23]  82
    x[8]      packing[24]  48
    x[8]      packing[25]  44
    x[8]      packing[26]  194
    x[8]      packing[27]  1
    x[8]      packing[28]  18
    x[8]      packing[29]  23
    x[8]      packing[30]  125
    x[8]      packing[31]  63
    x[8]      packing[32]  131
    x[8]      packing[33]  190
    x[8]      packing[34]  71
    x[8]      packing[35]  8
    x[8]      packing[36]  144
    x[8]      packing[37]  92
    x[8]      packing[38]  96
    x[8]      packing[40]  62
    x[8]      packing[41]  147
    x[8]      packing[43]  155
    x[8]      packing[45]  166
    x[8]      packing[46]  29
    x[8]      packing[47]  14
    x[8]      packing[48]  79
    x[8]      R51       1
    x[9]      OBJ       85
    x[9]      packing[0]  65
    x[9]      packing[1]  163
    x[9]      packing[2]  160
    x[9]      packing[3]  112
    x[9]      packing[7]  43
    x[9]      packing[8]  67
    x[9]      packing[11]  84
    x[9]      packing[13]  177
    x[9]      packing[14]  70
    x[9]      packing[15]  16
    x[9]      packing[16]  3
    x[9]      packing[17]  162
    x[9]      packing[18]  76
    x[9]      packing[19]  107
    x[9]      packing[20]  198
    x[9]      packing[21]  30
    x[9]      packing[22]  133
    x[9]      packing[23]  122
    x[9]      packing[25]  79
    x[9]      packing[26]  125
    x[9]      packing[27]  164
    x[9]      packing[28]  184
    x[9]      packing[29]  26
    x[9]      packing[31]  5
    x[9]      packing[32]  179
    x[9]      packing[33]  120
    x[9]      packing[35]  173
    x[9]      packing[39]  179
    x[9]      packing[40]  155
    x[9]      packing[41]  154
    x[9]      packing[43]  121
    x[9]      packing[44]  129
    x[9]      packing[45]  42
    x[9]      packing[46]  175
    x[9]      packing[47]  108
    x[9]      packing[48]  107
    x[9]      packing[49]  69
    x[10]     OBJ       24
    x[10]     packing[0]  70
    x[10]     packing[1]  161
    x[10]     packing[2]  25
    x[10]     packing[3]  76
    x[10]     packing[4]  145
    x[10]     packing[5]  65
    x[10]     packing[6]  137
    x[10]     packing[7]  134
    x[10]     packing[9]  169
    x[10]     packing[10]  47
    x[10]     packing[11]  135
    x[10]     packing[12]  27
    x[10]     packing[13]  16
    x[10]     packing[15]  149
    x[10]     packing[16]  193
    x[10]     packing[17]  10
    x[10]     packing[18]  21
    x[10]     packing[19]  152
    x[10]     packing[20]  188
    x[10]     packing[22]  75
    x[10]     packing[23]  158
    x[10]     packing[24]  24
    x[10]     packing[25]  194
    x[10]     packing[26]  40
    x[10]     packing[27]  103
    x[10]     packing[28]  139
    x[10]     packing[29]  60
    x[10]     packing[30]  64
    x[10]     packing[32]  56
    x[10]     packing[34]  32
    x[10]     packing[35]  33
    x[10]     packing[37]  81
    x[10]     packing[38]  90
    x[10]     packing[39]  177
    x[10]     packing[40]  106
    x[10]     packing[41]  149
    x[10]     packing[42]  24
    x[10]     packing[43]  4
    x[10]     packing[44]  179
    x[10]     packing[45]  124
    x[10]     packing[46]  52
    x[10]     packing[47]  101
    x[10]     packing[48]  29
    x[11]     OBJ       48
    x[11]     packing[3]  30
    x[11]     packing[5]  180
    x[11]     packing[6]  116
    x[11]     packing[8]  43
    x[11]     packing[9]  24
    x[11]     packing[10]  144
    x[11]     packing[11]  147
    x[11]     packing[12]  64
    x[11]     packing[13]  42
    x[11]     packing[14]  118
    x[11]     packing[15]  60
    x[11]     packing[16]  28
    x[11]     packing[18]  159
    x[11]     packing[19]  45
    x[11]     packing[20]  177
    x[11]     packing[21]  173
    x[11]     packing[22]  118
    x[11]     packing[23]  14
    x[11]     packing[24]  191
    x[11]     packing[25]  50
    x[11]     packing[26]  194
    x[11]     packing[27]  119
    x[11]     packing[28]  157
    x[11]     packing[29]  174
    x[11]     packing[30]  49
    x[11]     packing[31]  141
    x[11]     packing[33]  185
    x[11]     packing[35]  96
    x[11]     packing[36]  169
    x[11]     packing[37]  69
    x[11]     packing[38]  123
    x[11]     packing[39]  75
    x[11]     packing[41]  107
    x[11]     packing[42]  6
    x[11]     packing[43]  149
    x[11]     packing[44]  19
    x[11]     packing[45]  136
    x[11]     packing[46]  30
    x[11]     packing[47]  107
    x[11]     packing[48]  27
    x[12]     OBJ       102
    x[12]     packing[1]  80
    x[12]     packing[2]  133
    x[12]     packing[3]  40
    x[12]     packing[4]  19
    x[12]     packing[5]  81
    x[12]     packing[7]  139
    x[12]     packing[8]  30
    x[12]     packing[10]  136
    x[12]     packing[11]  122
    x[12]     packing[12]  139
    x[12]     packing[13]  85
    x[12]     packing[14]  130
    x[12]     packing[15]  92
    x[12]     packing[16]  36
    x[12]     packing[17]  179
    x[12]     packing[18]  157
    x[12]     packing[20]  107
    x[12]     packing[22]  142
    x[12]     packing[23]  85
    x[12]     packing[26]  111
    x[12]     packing[27]  165
    x[12]     packing[28]  111
    x[12]     packing[29]  170
    x[12]     packing[30]  150
    x[12]     packing[31]  122
    x[12]     packing[33]  123
    x[12]     packing[35]  100
    x[12]     packing[36]  29
    x[12]     packing[37]  75
    x[12]     packing[38]  37
    x[12]     packing[39]  12
    x[12]     packing[40]  123
    x[12]     packing[41]  36
    x[12]     packing[43]  48
    x[12]     packing[45]  88
    x[12]     packing[46]  37
    x[12]     packing[49]  151
    x[13]     OBJ       90
    x[13]     packing[0]  48
    x[13]     packing[1]  175
    x[13]     packing[2]  166
    x[13]     packing[3]  61
    x[13]     packing[4]  62
    x[13]     packing[5]  4
    x[13]     packing[6]  150
    x[13]     packing[7]  80
    x[13]     packing[8]  7
    x[13]     packing[9]  109
    x[13]     packing[10]  115
    x[13]     packing[12]  170
    x[13]     packing[13]  57
    x[13]     packing[14]  100
    x[13]     packing[15]  38
    x[13]     packing[16]  113
    x[13]     packing[17]  101
    x[13]     packing[18]  23
    x[13]     packing[19]  77
    x[13]     packing[20]  112
    x[13]     packing[21]  186
    x[13]     packing[22]  11
    x[13]     packing[24]  169
    x[13]     packing[25]  5
    x[13]     packing[26]  94
    x[13]     packing[28]  8
    x[13]     packing[29]  110
    x[13]     packing[30]  178
    x[13]     packing[31]  70
    x[13]     packing[32]  30
    x[13]     packing[35]  196
    x[13]     packing[36]  150
    x[13]     packing[37]  186
    x[13]     packing[38]  147
    x[13]     packing[41]  114
    x[13]     packing[42]  48
    x[13]     packing[43]  47
    x[13]     packing[44]  84
    x[13]     packing[46]  61
    x[13]     packing[47]  38
    x[13]     packing[48]  100
    x[13]     R51       1
    x[14]     OBJ       118
    x[14]     packing[0]  74
    x[14]     packing[1]  21
    x[14]     packing[2]  88
    x[14]     packing[3]  88
    x[14]     packing[5]  130
    x[14]     packing[8]  9
    x[14]     packing[9]  47
    x[14]     packing[11]  100
    x[14]     packing[12]  91
    x[14]     packing[13]  31
    x[14]     packing[14]  98
    x[14]     packing[15]  29
    x[14]     packing[16]  133
    x[14]     packing[17]  134
    x[14]     packing[18]  169
    x[14]     packing[19]  172
    x[14]     packing[21]  176
    x[14]     packing[22]  73
    x[14]     packing[24]  34
    x[14]     packing[25]  3
    x[14]     packing[27]  159
    x[14]     packing[28]  22
    x[14]     packing[29]  108
    x[14]     packing[30]  74
    x[14]     packing[31]  146
    x[14]     packing[36]  24
    x[14]     packing[37]  17
    x[14]     packing[38]  113
    x[14]     packing[39]  66
    x[14]     packing[41]  60
    x[14]     packing[42]  145
    x[14]     packing[44]  68
    x[14]     packing[45]  105
    x[14]     packing[46]  91
    x[14]     packing[49]  126
    x[14]     R51       1
    x[15]     OBJ       127
    x[15]     packing[0]  150
    x[15]     packing[1]  81
    x[15]     packing[2]  55
    x[15]     packing[4]  32
    x[15]     packing[5]  185
    x[15]     packing[6]  110
    x[15]     packing[7]  184
    x[15]     packing[8]  105
    x[15]     packing[9]  105
    x[15]     packing[10]  164
    x[15]     packing[11]  122
    x[15]     packing[12]  170
    x[15]     packing[14]  197
    x[15]     packing[15]  70
    x[15]     packing[16]  77
    x[15]     packing[17]  64
    x[15]     packing[18]  86
    x[15]     packing[19]  186
    x[15]     packing[20]  86
    x[15]     packing[22]  20
    x[15]     packing[23]  68
    x[15]     packing[25]  152
    x[15]     packing[27]  44
    x[15]     packing[28]  163
    x[15]     packing[29]  16
    x[15]     packing[30]  128
    x[15]     packing[31]  57
    x[15]     packing[32]  11
    x[15]     packing[34]  197
    x[15]     packing[35]  127
    x[15]     packing[36]  83
    x[15]     packing[37]  136
    x[15]     packing[38]  67
    x[15]     packing[39]  73
    x[15]     packing[40]  111
    x[15]     packing[42]  18
    x[15]     packing[43]  199
    x[15]     packing[44]  11
    x[15]     packing[45]  140
    x[15]     packing[46]  150
    x[15]     packing[47]  147
    x[15]     packing[49]  105
    x[16]     OBJ       141
    x[16]     packing[1]  35
    x[16]     packing[2]  155
    x[16]     packing[5]  38
    x[16]     packing[6]  152
    x[16]     packing[7]  77
    x[16]     packing[8]  150
    x[16]     packing[9]  11
    x[16]     packing[10]  173
    x[16]     packing[11]  131
    x[16]     packing[13]  1
    x[16]     packing[14]  163
    x[16]     packing[15]  88
    x[16]     packing[16]  135
    x[16]     packing[18]  74
    x[16]     packing[19]  175
    x[16]     packing[20]  67
    x[16]     packing[21]  43
    x[16]     packing[22]  132
    x[16]     packing[23]  117
    x[16]     packing[24]  165
    x[16]     packing[25]  37
    x[16]     packing[27]  3
    x[16]     packing[28]  145
    x[16]     packing[29]  60
    x[16]     packing[30]  12
    x[16]     packing[31]  18
    x[16]     packing[32]  173
    x[16]     packing[33]  128
    x[16]     packing[34]  66
    x[16]     packing[35]  72
    x[16]     packing[36]  113
    x[16]     packing[39]  116
    x[16]     packing[40]  126
    x[16]     packing[41]  136
    x[16]     packing[42]  61
    x[16]     packing[43]  172
    x[16]     packing[44]  158
    x[16]     packing[46]  60
    x[16]     packing[47]  122
    x[16]     packing[49]  190
    x[17]     OBJ       41
    x[17]     packing[0]  34
    x[17]     packing[1]  198
    x[17]     packing[3]  156
    x[17]     packing[5]  186
    x[17]     packing[6]  7
    x[17]     packing[7]  141
    x[17]     packing[8]  106
    x[17]     packing[12]  68
    x[17]     packing[14]  113
    x[17]     packing[15]  74
    x[17]     packing[17]  24
    x[17]     packing[18]  179
    x[17]     packing[19]  44
    x[17]     packing[21]  162
    x[17]     packing[22]  100
    x[17]     packing[24]  105
    x[17]     packing[25]  91
    x[17]     packing[26]  68
    x[17]     packing[27]  32
    x[17]     packing[28]  193
    x[17]     packing[30]  122
    x[17]     packing[31]  92
    x[17]     packing[34]  139
    x[17]     packing[36]  86
    x[17]     packing[37]  31
    x[17]     packing[38]  130
    x[17]     packing[39]  168
    x[17]     packing[40]  169
    x[17]     packing[43]  27
    x[17]     packing[44]  196
    x[17]     packing[46]  126
    x[17]     packing[47]  96
    x[17]     packing[48]  44
    x[17]     packing[49]  49
    x[18]     OBJ       32
    x[18]     packing[0]  55
    x[18]     packing[2]  145
    x[18]     packing[3]  111
    x[18]     packing[4]  132
    x[18]     packing[5]  3
    x[18]     packing[6]  161
    x[18]     packing[8]  184
    x[18]     packing[10]  21
    x[18]     packing[11]  112
    x[18]     packing[13]  58
    x[18]     packing[14]  157
    x[18]     packing[16]  65
    x[18]     packing[17]  22
    x[18]     packing[18]  12
    x[18]     packing[21]  163
    x[18]     packing[22]  120
    x[18]     packing[23]  143
    x[18]     packing[24]  72
    x[18]     packing[25]  74
    x[18]     packing[26]  135
    x[18]     packing[27]  160
    x[18]     packing[28]  152
    x[18]     packing[31]  133
    x[18]     packing[33]  67
    x[18]     packing[34]  17
    x[18]     packing[35]  105
    x[18]     packing[36]  63
    x[18]     packing[37]  57
    x[18]     packing[38]  175
    x[18]     packing[41]  34
    x[18]     packing[42]  4
    x[18]     packing[43]  126
    x[18]     packing[44]  141
    x[18]     packing[45]  147
    x[18]     packing[46]  51
    x[18]     packing[47]  44
    x[18]     packing[48]  18
    x[18]     packing[49]  128
    x[19]     OBJ       181
    x[19]     packing[0]  32
    x[19]     packing[1]  111
    x[19]     packing[2]  188
    x[19]     packing[3]  52
    x[19]     packing[4]  93
    x[19]     packing[5]  186
    x[19]     packing[6]  13
    x[19]     packing[7]  12
    x[19]     packing[8]  60
    x[19]     packing[10]  129
    x[19]     packing[11]  164
    x[19]     packing[12]  44
    x[19]     packing[13]  63
    x[19]     packing[14]  36
    x[19]     packing[15]  133
    x[19]     packing[16]  189
    x[19]     packing[17]  152
    x[19]     packing[18]  130
    x[19]     packing[19]  173
    x[19]     packing[22]  167
    x[19]     packing[24]  4
    x[19]     packing[26]  180
    x[19]     packing[27]  172
    x[19]     packing[28]  124
    x[19]     packing[29]  16
    x[19]     packing[30]  49
    x[19]     packing[32]  121
    x[19]     packing[33]  56
    x[19]     packing[34]  42
    x[19]     packing[38]  3
    x[19]     packing[39]  105
    x[19]     packing[40]  132
    x[19]     packing[41]  83
    x[19]     packing[43]  128
    x[19]     packing[44]  75
    x[19]     packing[45]  167
    x[19]     packing[46]  76
    x[19]     packing[47]  127
    x[19]     packing[48]  166
    x[20]     OBJ       108
    x[20]     packing[0]  1
    x[20]     packing[3]  62
    x[20]     packing[4]  41
    x[20]     packing[6]  173
    x[20]     packing[7]  15
    x[20]     packing[8]  73
    x[20]     packing[9]  42
    x[20]     packing[10]  136
    x[20]     packing[11]  108
    x[20]     packing[13]  155
    x[20]     packing[14]  163
    x[20]     packing[15]  153
    x[20]     packing[16]  195
    x[20]     packing[17]  158
    x[20]     packing[18]  150
    x[20]     packing[19]  108
    x[20]     packing[20]  157
    x[20]     packing[23]  24
    x[20]     packing[24]  146
    x[20]     packing[27]  111
    x[20]     packing[28]  137
    x[20]     packing[30]  104
    x[20]     packing[31]  88
    x[20]     packing[32]  50
    x[20]     packing[34]  42
    x[20]     packing[36]  125
    x[20]     packing[37]  188
    x[20]     packing[42]  87
    x[20]     packing[43]  149
    x[20]     packing[45]  110
    x[20]     packing[46]  16
    x[20]     packing[48]  90
    x[20]     packing[49]  188
    MARKER    'MARKER'                 'INTEND'
RHS
    RHS1      packing[0]  579
    RHS1      packing[1]  1027
    RHS1      packing[2]  831
    RHS1      packing[3]  735
    RHS1      packing[4]  645
    RHS1      packing[5]  919
    RHS1      packing[6]  812
    RHS1      packing[7]  834
    RHS1      packing[8]  663
    RHS1      packing[9]  687
    RHS1      packing[10]  840
    RHS1      packing[11]  1007
    RHS1      packing[12]  753
    RHS1      packing[13]  688
    RHS1      packing[14]  1025
    RHS1      packing[15]  619
    RHS1      packing[16]  950
    RHS1      packing[17]  777
    RHS1      packing[18]  875
    RHS1      packing[19]  1107
    RHS1      packing[20]  998
    RHS1      packing[21]  734
    RHS1      packing[22]  924
    RHS1      packing[23]  659
    RHS1      packing[24]  764
    RHS1      packing[25]  560
    RHS1      packing[26]  657
    RHS1      packing[27]  802
    RHS1      packing[28]  1105
    RHS1      packing[29]  695
    RHS1      packing[30]  923
    RHS1      packing[31]  850
    RHS1      packing[32]  747
    RHS1      packing[33]  682
    RHS1      packing[34]  556
    RHS1      packing[35]  591
    RHS1      packing[36]  715
    RHS1      packing[37]  747
    RHS1      packing[38]  882
    RHS1      packing[39]  761
    RHS1      packing[40]  608
    RHS1      packing[41]  792
    RHS1      packing[42]  544
    RHS1      packing[43]  892
    RHS1      packing[44]  799
    RHS1      packing[45]  917
    RHS1      packing[46]  707
    RHS1      packing[47]  657
    RHS1      packing[48]  672
    RHS1      packing[49]  768
    RHS1      R51       4
BOUNDS
 BV BND1      x[1]    
 BV BND1      x[2]    
 BV BND1      x[3]    
 BV BND1      x[4]    
 BV BND1      x[5]    
 BV BND1      x[6]    
 BV BND1      x[7]    
 BV BND1      x[8]    
 BV BND1      x[9]    
 BV BND1      x[10]   
 BV BND1      x[11]   
 BV BND1      x[12]   
 BV BND1      x[13]   
 BV BND1      x[14]   
 BV BND1      x[15]   
 BV BND1      x[16]   
 BV BND1      x[17]   
 BV BND1      x[18]   
 BV BND1      x[19]   
 BV BND1      x[20]   
ENDATA
